data/ILP/testTarjan.lp
Minimize
obj: 1.0x_1 + 1.0x_2 + 1.0x_3 + 1.0x_4 + 1.0x_5 + 1.0x_6 + 1.0x_7 + 1.0x_8 + 1.0x_9 + 1.0x_10 + 1.0x_11 + 1.0x_12 + 1.0x_13 + 1.0x_14 + 1.0x_15
Subject To
Bounds
General
Binaries
x_1
x_2
x_3
x_4
x_5
x_6
x_7
x_8
x_9
x_10
x_11
x_12
x_13
x_14
x_15
End
